Tried aggregator 2 times.
MIP Presolve eliminated 8 rows and 8 columns.
Aggregator did 4 substitutions.
Reduced MIP has 105109 rows, 140148 columns, and 350364 nonzeros.
Reduced MIP has 35036 binaries, 0 generals, 0 SOSs, and 0 indicators.
Presolve time = 0.33 sec. (224.71 ticks)
Found incumbent of value 2776.343151 after 0.82 sec. (675.42 ticks)
Probing time = 0.16 sec. (6.64 ticks)
Tried aggregator 1 time.
Reduced MIP has 105109 rows, 140148 columns, and 350364 nonzeros.
Reduced MIP has 35036 binaries, 0 generals, 0 SOSs, and 0 indicators.
Presolve time = 0.48 sec. (189.93 ticks)
Probing time = 0.05 sec. (6.24 ticks)
MIP emphasis: balance optimality and feasibility.
MIP search method: dynamic search.
Parallel mode: deterministic, using up to 20 threads.
Root relaxation solution time = 1.23 sec. (861.59 ticks)

        Nodes                                         Cuts/
   Node  Left     Objective  IInf  Best Integer    Best Bound    ItCnt     Gap

*     0+    0                         2776.3432   1.41323e+07              --- 
*     0+    0                         7014.6981   1.41323e+07              --- 
      0     0  3552593.6646  1427     7014.6981  3552593.6646    14136     --- 
      0     0  3534670.5089   632     7014.6981    Cuts: 2798    15143     --- 
*     0+    0                      3430959.8759  3534670.5089             3.02%
      0     0  3533276.7823   524  3430959.8759    Cuts: 2102    15944    2.98%
      0     0  3531109.0840   596  3430959.8759    Cuts: 1642    16633    2.92%
      0     0  3526152.2576   468  3430959.8759    Cuts: 1481    17204    2.77%
      0     0  3525571.8108   518  3430959.8759     Cuts: 790    17625    2.76%
      0     0  3524615.1259   512  3430959.8759     Cuts: 620    17960    2.73%
      0     0  3523284.5535   458  3430959.8759     Cuts: 424    18266    2.69%
      0     0  3522580.2716   454  3430959.8759     Cuts: 308    18486    2.67%
      0     0  3522321.8139   444  3430959.8759     Cuts: 216    18628    2.66%
      0     0  3522113.3111   434  3430959.8759     Cuts: 108    18734    2.66%
      0     0  3521923.7259   426  3430959.8759      Cuts: 64    18778    2.65%
      0     0  3521807.9293   428  3430959.8759   MIRcuts: 38    18818    2.65%
*     0+    0                      3494076.2600  3521807.9293             0.79%
*     0+    0                      3501759.4059  3521807.9293             0.57%
      0     2  3521807.9293   428  3501759.4059  3521807.9293    18818    0.57%
Elapsed time = 12.99 sec. (10660.67 ticks, tree = 0.01 MB, solutions = 5)
      3     5  3521801.3809   426  3501759.4059  3521807.3205    18824    0.57%
      4     6  3521801.0733   423  3501759.4059  3521807.3205    18826    0.57%
      5     7  3521796.3810   422  3501759.4059  3521805.5940    18832    0.57%
      6     8  3521790.1401   423  3501759.4059  3521805.5940    18838    0.57%
      7     9  3521787.8379   424  3501759.4059  3521805.5940    18844    0.57%
      8    10  3521798.5994   419  3501759.4059  3521805.5940    18849    0.57%
      9    11  3521783.8993   424  3501759.4059  3521805.5940    18851    0.57%
     10    12  3521786.1177   421  3501759.4059  3521805.5940    18852    0.57%
     11    13  3521796.8793   416  3501759.4059  3521803.1599    18853    0.57%
     86    88  3521780.2384   403  3501759.4059  3521803.1599    18979    0.57%
Elapsed time = 14.70 sec. (11664.78 ticks, tree = 0.01 MB, solutions = 5)
    477   479  3521683.5899   392  3501759.4059  3521803.1599    20321    0.57%
    497   499  3521634.1933   392  3501759.4059  3521803.1599    20376    0.57%
    498   500  3521626.5520   393  3501759.4059  3521803.1599    20377    0.57%
    499   501  3521619.1804   392  3501759.4059  3521803.1599    20378    0.57%
    500   502  3521627.2253   396  3501759.4059  3521803.1599    20379    0.57%
    501   503  3521615.8312   393  3501759.4059  3521803.1599    20380    0.57%
    502   504  3521614.7435   398  3501759.4059  3521803.1599    20381    0.57%
    503   505  3521622.1152   399  3501759.4059  3521803.1599    20382    0.57%
    504   506  3521618.0927   397  3501759.4059  3521803.1599    20383    0.57%
    505   507  3521618.0927   397  3501759.4059  3521803.1599    20384    0.57%
Elapsed time = 17.40 sec. (12636.43 ticks, tree = 0.01 MB, solutions = 5)
    678   680  3521419.9245   390  3501759.4059  3521803.1599    20923    0.57%
*   686+  686                      3502797.4307  3521803.1599             0.54%
    686   688  3521250.7963   393  3502797.4307  3521803.1599    20945    0.54%
    687   689  3521247.4471   394  3502797.4307  3521803.1599    20953    0.54%
    688   690  3521244.9160   392  3502797.4307  3521803.1599    20961    0.54%
    689   691  3521244.9160   392  3502797.4307  3521803.1599    20969    0.54%
    690   692  3521242.6975   395  3502797.4307  3521803.1599    20977    0.54%
    691   693  3521241.5668   393  3502797.4307  3521803.1599    20985    0.54%
    809   811  3521358.6619   382  3502797.4307  3521803.1599    21385    0.54%
    810   812  3521313.7277   386  3502797.4307  3521803.1599    21388    0.54%
    811   813  3521121.5559   388  3502797.4307  3521803.1599    21389    0.54%
Elapsed time = 20.09 sec. (13808.87 ticks, tree = 3.18 MB, solutions = 11)
*   872+  872                      3502952.5529  3521803.1599             0.54%
   1120  1122  3521056.1076   366  3502952.5529  3521803.1599    22259    0.54%
   1140  1142  3521060.9018   364  3502952.5529  3521803.1599    22322    0.54%
   1160  1162  3521057.7780   364  3502952.5529  3521803.1599    22374    0.54%
   1161  1163  3520747.6986   362  3502952.5529  3521803.1599    22375    0.54%
   1162  1164  3520967.1340   367  3502952.5529  3521803.1599    22382    0.54%
   1164  1166  3521082.2143   379  3502952.5529  3521803.1599    22385    0.54%
   1168  1170  3521084.4758   383  3502952.5529  3521803.1599    22390    0.54%
   1169  1171  3521082.2574   386  3502952.5529  3521803.1599    22392    0.54%
   1170  1172  3521079.3665   370  3502952.5529  3521803.1599    22399    0.54%
   1171  1173  3521076.0174   371  3502952.5529  3521803.1599    22406    0.54%
Elapsed time = 23.33 sec. (14798.09 ticks, tree = 10.80 MB, solutions = 18)
   1605  1607  3521036.2148   371  3502952.5529  3521803.1599    23496    0.54%
   1607  1609  3520598.1058   354  3502952.5529  3521803.1599    23507    0.54%
   1608  1610  3521043.1221   363  3502952.5529  3521803.1599    23508    0.54%
   1616  1618  3520867.7130   359  3502952.5529  3521803.1599    23534    0.54%
   1617  1619  3520864.3639   360  3502952.5529  3521803.1599    23541    0.54%
   1618  1620  3521096.5591   361  3502952.5529  3521803.1599    23542    0.54%
   1619  1621  3521096.5591   361  3502952.5529  3521803.1599    23543    0.54%
   1620  1622  3520941.8833   365  3502952.5529  3521803.1599    23550    0.54%
   1621  1623  3521093.2100   362  3502952.5529  3521803.1599    23551    0.54%
   1625  1627  3521032.9163   369  3502952.5529  3521803.1599    23557    0.54%
Elapsed time = 25.62 sec. (15769.21 ticks, tree = 24.31 MB, solutions = 18)
   1949  1951  3520541.9130   344  3502952.5529  3521803.1599    24406    0.54%
   1951  1953  3520529.4313   346  3502952.5529  3521803.1599    24411    0.54%
   1952  1954  3520536.8029   347  3502952.5529  3521803.1599    24415    0.54%
   1953  1955  3520532.7805   345  3502952.5529  3521803.1599    24419    0.54%
   1969  1971  3520599.4014   342  3502952.5529  3521803.1599    24458    0.54%
   1970  1972  3520601.6629   346  3502952.5529  3521803.1599    24461    0.54%
   1971  1973  3520599.4445   349  3502952.5529  3521803.1599    24464    0.54%
   1985  1987  3520625.9949   342  3502952.5529  3521803.1599    24512    0.54%
   1986  1988  3520628.2564   346  3502952.5529  3521803.1599    24513    0.54%
   1987  1989  3520626.0379   349  3502952.5529  3521803.1599    24514    0.54%
Elapsed time = 28.30 sec. (16770.98 ticks, tree = 24.31 MB, solutions = 18)
   2562  2564  3520260.5132   332  3502952.5529  3521803.1599    26204    0.54%
   2565  2567  3520250.3968   343  3502952.5529  3521803.1599    26208    0.54%
   2567  2569  3520237.9151   345  3502952.5529  3521803.1599    26210    0.54%
   2568  2570  3520245.2867   346  3502952.5529  3521803.1599    26211    0.54%
   2569  2571  3520241.2643   344  3502952.5529  3521803.1599    26212    0.54%
   2572  2574  3520345.4202   348  3502952.5529  3521803.1599    26218    0.54%
   2573  2575  3520342.0710   349  3502952.5529  3521803.1599    26222    0.54%
   2576  2578  3520419.5905   354  3502952.5529  3521803.1599    26228    0.54%
   2582  2584  3520254.9627   332  3502952.5529  3521803.1599    26245    0.54%
   2583  2585  3520145.6941   338  3502952.5529  3521803.1599    26248    0.54%
Elapsed time = 31.61 sec. (17753.40 ticks, tree = 40.13 MB, solutions = 18)
*  2942+ 2942                      3503312.5196  3521803.1599             0.53%
   2942  2944  3520102.5611   318  3503312.5196  3521803.1599    27093    0.53%
*  2961+ 2961                      3503339.8593  3521803.1599             0.53%
   2961  2963  3519939.7661   320  3503339.8593  3521803.1599    27156    0.53%
   2962  2964  3519949.1842   317  3503339.8593  3521803.1599    27161    0.53%
   2963  2965  3519927.2844   322  3503339.8593  3521803.1599    27166    0.53%
   2964  2966  3519934.6560   323  3503339.8593  3521803.1599    27171    0.53%
   2965  2967  3519930.6336   321  3503339.8593  3521803.1599    27176    0.53%
   2966  2968  3519951.4457   321  3503339.8593  3521803.1599    27181    0.53%
*  2967+ 2967                      3503716.8480  3521803.1599             0.52%
   2967  2969  3519949.2273   324  3503716.8480  3521803.1599    27186    0.52%
*  2968+ 2968                      3503916.1350  3521803.1599             0.51%
   2968  2970  3520148.5181   326  3503916.1350  3521803.1599    27187    0.51%
*  2969+ 2969                      3503922.9696  3521803.1599             0.51%
   2969  2971  3520145.1689   327  3503922.9696  3521803.1599    27188    0.51%
Elapsed time = 35.76 sec. (19359.63 ticks, tree = 63.68 MB, solutions = 18)
*  2973+ 2973                      3503979.9130  3521803.1599             0.51%
   3658  3660  3517895.5832   287  3503979.9130  3521803.1599    29167    0.51%
   3659  3661  3518275.2441   297  3503979.9130  3521803.1599    29173    0.51%
   3660  3662  3518128.0412   293  3503979.9130  3521803.1599    29174    0.51%
   3661  3663  3518838.0168   297  3503979.9130  3521803.1599    29176    0.51%
   3662  3664  3519004.1210   305  3503979.9130  3521803.1599    29177    0.51%
   3663  3665  3518974.7602   300  3503979.9130  3521803.1599    29178    0.51%
   3664  3666  3518832.9067   300  3503979.9130  3521803.1599    29180    0.51%
   3665  3667  3518828.8843   298  3503979.9130  3521803.1599    29182    0.51%
   3666  3668  3518837.5231   299  3503979.9130  3521803.1599    29183    0.51%
   3667  3669  3519004.1260   311  3503979.9130  3521803.1599    29184    0.51%
Elapsed time = 38.63 sec. (20364.45 ticks, tree = 83.37 MB, solutions = 31)
   4292  4294  3518234.6850   307  3503979.9130  3521803.1599    30744    0.51%
   4309  4311  3518274.1528   299  3503979.9130  3521803.1599    30785    0.51%
   4310  4312  3518079.2594   298  3503979.9130  3521803.1599    30786    0.51%
   4311  4313  3518079.2594   298  3503979.9130  3521803.1599    30787    0.51%
   4312  4314  3518213.6224   307  3503979.9130  3521803.1599    30788    0.51%
   4313  4315  3518075.9103   299  3503979.9130  3521803.1599    30789    0.51%
   4318  4320  3516469.0786   261  3503979.9130  3521803.1599    30797    0.51%
   4319  4321  3516828.0587   273  3503979.9130  3521803.1599    30802    0.51%
   4321  4323  3517464.5731   275  3503979.9130  3521803.1599    30808    0.51%
*  5318+ 5318                      3505379.0626  3521803.1599             0.47%
*  5318+ 5318                      3505746.8859  3521803.1599             0.46%
*  5318+ 5318                      3506096.9191  3521803.1599             0.45%
*  5318+ 5318                      3507245.1283  3521803.1599             0.42%
*  5318+ 5318                      3507268.7671  3521803.1599             0.41%
*  5318+ 5318                      3507341.3976  3521803.1599             0.41%
   5318  5320  3515024.6833   199  3507341.3976  3521803.1599    33407    0.41%
Elapsed time = 74.40 sec. (39538.83 ticks, tree = 247.18 MB, solutions = 31)
*  5320+ 5320                      3507418.8844  3521803.1599             0.41%
*  5320+ 5320                      3507449.6875  3521803.1599             0.41%
*  5320+ 5320                      3507548.2302  3521803.1599             0.41%
   5332  5334  3516729.7242   269  3507548.2302  3521803.1599    33443    0.41%
*  5334+ 5334                      3507632.5304  3521803.1599             0.40%
*  5334+ 5334                      3507672.3156  3521803.1599             0.40%
*  5337+ 5337                      3507708.1430  3521803.1599             0.40%
*  5337+ 5337                      3507731.4121  3521803.1599             0.40%
*  5338+ 3558                      3508567.3645  3509567.6127             0.03%
*  5338+ 2372                      3508688.9513  3509472.6606             0.02%
   5338  2373  3509472.6606    85  3508688.9513  3509472.6606    87916    0.02%
   5339  2374  3509460.3338    83  3508688.9513  3509472.6606    87918    0.02%
   5340  2375  3509448.4821    84  3508688.9513  3509472.6606    87922    0.02%
   5341  2376  3509448.0070    81  3508688.9513  3509451.9370    87924    0.02%
   5342  2377  3509424.3037    83  3508688.9513  3509451.9370    87929    0.02%
   5343  2378  3509436.1553    82  3508688.9513  3509451.9370    87931    0.02%
   5344  2379  3509419.6241    78  3508688.9513  3509451.9370    87933    0.02%
   5345  2379  3509431.4758    77  3508688.9513  3509451.9370    87935    0.02%
   5346  2380  3509443.3274    76  3508688.9513  3509448.4821    87937    0.02%
Elapsed time = 106.94 sec. (71946.90 ticks, tree = 111.51 MB, solutions = 181)
   5443  2430  3509431.0606    61  3508688.9513  3509448.4821    88347    0.02%
   5444  2431  3509407.6242    67  3508688.9513  3509448.4821    88349    0.02%
   5445  2432  3509398.8338    64  3508688.9513  3509448.4821    88357    0.02%
   5446  2433  3509376.2787    70  3508688.9513  3509448.4821    88359    0.02%
   5447  2434  3509385.7768    64  3508688.9513  3509448.4821    88362    0.02%
   5448  2434  3509374.0586    67  3508688.9513  3509448.4821    88365    0.02%
   5449  2435  3509342.7131    70  3508688.9513  3509448.4821    88368    0.02%
   5450  2435  3509263.5518    60  3508688.9513  3509448.4821    88370    0.02%
   5451  2436  3509250.3650    62  3508688.9513  3509448.4821    88373    0.02%
   5452  2436  3509279.7562    66  3508688.9513  3509448.4821    88376    0.02%
Elapsed time = 114.72 sec. (76171.14 ticks, tree = 109.16 MB, solutions = 181)
*  5521+ 1704                      3509343.3419  3509448.4821             0.00%

Implied bound cuts applied:  150
Flow cuts applied:  118
Mixed integer rounding cuts applied:  4570
Lift and project cuts applied:  24
Gomory fractional cuts applied:  207

Root node processing (before b&c):
  Real time             =   12.52 sec. (10704.00 ticks)
Parallel b&c, 20 threads:
  Real time             =  106.24 sec. (67387.53 ticks)
  Sync time (average)   =   16.65 sec.
  Wait time (average)   =   18.36 sec.
                          ------------
Total (root+branch&cut) =  118.76 sec. (78091.53 ticks)
MKLROOT=/global/software/sl-6.x86_64/modules/langs/intel/2015.6.233/mkl
SLURM_NODELIST=n0106.savio1
SLURM_CHECKPOINT_IMAGE_DIR=/var/slurm/checkpoint
MANPATH=/global/software/sl-6.x86_64/modules/langs/julia/0.5.0/share/man:/global/software/sl-6.x86_64/modules/langs/intel/2015.6.233/man/en_US:/global/software/sl-6.x86_64/modules/langs/gcc/4.8.5/share/man:/usr/share/man
SLURM_JOB_NAME=aggregator
HOSTNAME=n0106.savio1
SLURM_NTASKS_PER_NODE=1
SLURM_TOPOLOGY_ADDR=ib-savio.ib-savio-04.n0106.savio1
SLURMD_NODENAME=n0106.savio1
SLURM_PRIO_PROCESS=0
SLURM_NODE_ALIASES=(null)
TERM=xterm-256color
SHELL=/bin/bash
HISTSIZE=1000
SLURM_JOB_QOS=savio_normal
SSH_CLIENT=128.32.156.166 53087 22
SLURM_TOPOLOGY_ADDR_PATTERN=switch.switch.node
TMPDIR=/tmp
LIBRARY_PATH=/global/software/sl-6.x86_64/modules/langs/julia/0.5.0/lib/julia:/global/software/sl-6.x86_64/modules/langs/intel/2015.6.233/mkl/lib/intel64:/global/software/sl-6.x86_64/modules/langs/gcc/4.8.5/lib64:/global/software/sl-6.x86_64/modules/langs/gcc/4.8.5/lib
GCC_DIR=/global/software/sl-6.x86_64/modules/langs/gcc/4.8.5
FPATH=/global/software/sl-6.x86_64/modules/langs/intel/2015.6.233/mkl/include/fftw:/global/software/sl-6.x86_64/modules/langs/intel/2015.6.233/mkl/include
SSH_TTY=/dev/pts/23
USER=jdlara
SLURM_NNODES=1
LD_LIBRARY_PATH=/global/software/sl-6.x86_64/modules/langs/julia/0.5.0/lib/julia:/global/software/sl-6.x86_64/modules/langs/intel/2015.6.233/mkl/lib/intel64:/global/software/sl-6.x86_64/modules/langs/gcc/4.8.5/lib64:/global/software/sl-6.x86_64/modules/langs/gcc/4.8.5/lib:/global/home/users/jdlara/gurobi652/linux64/lib
LS_COLORS=rs=0:di=38;5;27:ln=38;5;51:mh=44;38;5;15:pi=40;38;5;11:so=38;5;13:do=38;5;5:bd=48;5;232;38;5;11:cd=48;5;232;38;5;3:or=48;5;232;38;5;9:mi=05;48;5;232;38;5;15:su=48;5;196;38;5;15:sg=48;5;11;38;5;16:ca=48;5;196;38;5;226:tw=48;5;10;38;5;16:ow=48;5;10;38;5;21:st=48;5;21;38;5;15:ex=38;5;34:*.tar=38;5;9:*.tgz=38;5;9:*.arj=38;5;9:*.taz=38;5;9:*.lzh=38;5;9:*.lzma=38;5;9:*.tlz=38;5;9:*.txz=38;5;9:*.zip=38;5;9:*.z=38;5;9:*.Z=38;5;9:*.dz=38;5;9:*.gz=38;5;9:*.lz=38;5;9:*.xz=38;5;9:*.bz2=38;5;9:*.tbz=38;5;9:*.tbz2=38;5;9:*.bz=38;5;9:*.tz=38;5;9:*.deb=38;5;9:*.rpm=38;5;9:*.jar=38;5;9:*.rar=38;5;9:*.ace=38;5;9:*.zoo=38;5;9:*.cpio=38;5;9:*.7z=38;5;9:*.rz=38;5;9:*.jpg=38;5;13:*.jpeg=38;5;13:*.gif=38;5;13:*.bmp=38;5;13:*.pbm=38;5;13:*.pgm=38;5;13:*.ppm=38;5;13:*.tga=38;5;13:*.xbm=38;5;13:*.xpm=38;5;13:*.tif=38;5;13:*.tiff=38;5;13:*.png=38;5;13:*.svg=38;5;13:*.svgz=38;5;13:*.mng=38;5;13:*.pcx=38;5;13:*.mov=38;5;13:*.mpg=38;5;13:*.mpeg=38;5;13:*.m2v=38;5;13:*.mkv=38;5;13:*.ogm=38;5;13:*.mp4=38;5;13:*.m4v=38;5;13:*.mp4v=38;5;13:*.vob=38;5;13:*.qt=38;5;13:*.nuv=38;5;13:*.wmv=38;5;13:*.asf=38;5;13:*.rm=38;5;13:*.rmvb=38;5;13:*.flc=38;5;13:*.avi=38;5;13:*.fli=38;5;13:*.flv=38;5;13:*.gl=38;5;13:*.dl=38;5;13:*.xcf=38;5;13:*.xwd=38;5;13:*.yuv=38;5;13:*.cgm=38;5;13:*.emf=38;5;13:*.axv=38;5;13:*.anx=38;5;13:*.ogv=38;5;13:*.ogx=38;5;13:*.aac=38;5;45:*.au=38;5;45:*.flac=38;5;45:*.mid=38;5;45:*.midi=38;5;45:*.mka=38;5;45:*.mp3=38;5;45:*.mpc=38;5;45:*.ogg=38;5;45:*.ra=38;5;45:*.wav=38;5;45:*.axa=38;5;45:*.oga=38;5;45:*.spx=38;5;45:*.xspf=38;5;45:
CPATH=/global/software/sl-6.x86_64/modules/langs/julia/0.5.0/include:/global/software/sl-6.x86_64/modules/langs/intel/2015.6.233/mkl/include/fftw:/global/software/sl-6.x86_64/modules/langs/intel/2015.6.233/mkl/include:/global/software/sl-6.x86_64/modules/langs/gcc/4.8.5/include
SLURM_JOBID=1277288
SLURM_NTASKS=1
NLSPATH=/global/software/sl-6.x86_64/modules/langs/intel/2015.6.233/mkl/lib/intel64/locale/en_US
MAIL=/var/spool/mail/jdlara
PATH=/global/software/sl-6.x86_64/modules/langs/julia/0.5.0/bin:/global/software/sl-6.x86_64/modules/langs/gcc/4.8.5/bin:/usr/local/bin:/bin:/usr/bin:/usr/local/sbin:/usr/sbin:/sbin:/global/home/groups/allhands/bin:/global/home/users/jdlara/gurobi652/linux64/bin:/global/home/users/jdlara/bin:/global/home/users/jdlara/gurobi652/linux64/bin
SLURM_TASKS_PER_NODE=20
SLURM_CPUS_PER_TASK=1
SLURM_JOB_ID=1277288
PWD=/global/home/users/jdlara/Julia_testcodes/aggregator_model/Multiple_fleet
SLURM_JOB_USER=jdlara
_LMFILES_=/global/software/sl-6.x86_64/modfiles/langs/gcc/4.8.5:/global/software/sl-6.x86_64/modfiles/gcc/4.8.5/mkl/2015.6.233:/global/software/sl-6.x86_64/modfiles/langs/julia/0.5.0
CUDA_VISIBLE_DEVICES=NoDevFiles
MODULEPATH=/global/software/sl-6.x86_64/modfiles/tools:/global/software/sl-6.x86_64/modfiles/langs:/global/software/sl-6.x86_64/modfiles/julia/0.5.0:/global/software/sl-6.x86_64/modfiles/gcc/4.8.5
LOADEDMODULES=gcc/4.8.5:mkl/2015.6.233:julia/0.5.0
SLURM_JOB_UID=42745
SLURM_NODEID=0
SLURM_SUBMIT_DIR=/global/home/users/jdlara/Julia_testcodes/aggregator_model/Multiple_fleet
SLURM_NPROCS=1
SLURM_TASK_PID=8956
LM_LICENSE_FILE=28518@lmgr0.hpcs.lbl.gov
SLURM_CPUS_ON_NODE=20
JULIA_DIR=/global/software/sl-6.x86_64/modules/langs/julia/0.5.0
ALLHANDS_BASHRC=1
HISTCONTROL=ignoredups
ENVIRONMENT=BATCH
SLURM_PROCID=0
MKL_DIR=/global/software/sl-6.x86_64/modules/langs/intel/2015.6.233/mkl
SLURM_JOB_NODELIST=n0106.savio1
SHLVL=3
HOME=/global/home/users/jdlara
SLURM_LOCALID=0
SLURM_CLUSTER_NAME=brc
SLURM_JOB_CPUS_PER_NODE=20
SLURM_SUBMIT_HOST=n0051.savio1
SLURM_GTIDS=0
SLURM_JOB_PARTITION=savio
LOGNAME=jdlara
CVS_RSH=ssh
SSH_CONNECTION=128.32.156.166 53087 10.0.0.22 22
SLURM_JOB_ACCOUNT=fc_emac
GPU_DEVICE_ORDINAL=NoDevFiles
MODULESHOME=/usr/Modules
SLURM_JOB_NUM_NODES=1
LESSOPEN=||/usr/bin/lesspipe.sh %s
INFOPATH=/global/software/sl-6.x86_64/modules/langs/gcc/4.8.5/share/info
INCLUDE=/global/software/sl-6.x86_64/modules/langs/julia/0.5.0/include:/global/software/sl-6.x86_64/modules/langs/intel/2015.6.233/mkl/include/fftw:/global/software/sl-6.x86_64/modules/langs/intel/2015.6.233/mkl/include:/global/software/sl-6.x86_64/modules/langs/gcc/4.8.5/include
G_BROKEN_FILENAMES=1
SLURM_MEM_PER_NODE=64000
BASH_FUNC_module()=() {  logger "$HOSTNAME $USER: module $*";
 eval `/usr/Modules/bin/modulecmd bash $*`
}
_=/bin/env
